Name = "pr00.txt";
locX = [35,93,53,51,51,1,9,75,15,79,9,39,47,33,27,83,17,47,57,87,55,21,21,67,59,1,33,25,45,63,1,77,35,9,61,59,63,97,9,93,83,95,31,77,63,3,11,7,37,75,15,69,69,5,49,77,15,91,79,67,93,25,9,3,25];
locY = [7,75,95,81,55,67,23,7,97,5,19,1,1,97,83,79,59,19,9,41,25,91,13,1,21,75,85,21,29,77,77,41,11,77,87,91,79,67,45,21,71,57,69,17,57,63,69,9,65,83,53,5,27,19,31,17,7,39,17,75,51,33,19,65,51];
Demand = [12,24,16,7,9,20,10,18,26,17,2,11,9,12,11,12,23,7,1,26,10,9,22,21,17,2,15,16,14,23,24,2,12,18,5,19,15,8,6,14,13,5,24,25,2,8,14,2,13,10,6,6,24,21,20,24,4,19,14,23,2,16,23,14];
NumVehicles = 9;
Cap = 100;
